sat
(= |goto_symex::&92;guard#1| true)
(= |goto_symex::&92;guard#2| true)
(= |memory_model::choice_rf_1_4_0_8_T_0| false)
(= |memory_model::choice_rf_1_4_2_3_T_1| false)
(= |memory_model::choice_rf_2_2_0_8_T_2| true)
(= |memory_model::choice_rf_2_2_1_5_T_3| false)
(= |memory_model::choice_rf_0_20_0_6_T_4| false)
(= |memory_model::choice_rf_0_20_0_16_T_5| true)
(= |memory_model::choice_rf_1_0_0_10_F_6| false)
(= |memory_model::choice_rf_1_0_0_14_F_7| true)
(= |memory_model::choice_rf_1_0_2_1_F_8| false)
(= |memory_model::choice_rf_1_2_0_10_F_9| false)
(= |memory_model::choice_rf_1_2_0_14_F_10| false)
(= |memory_model::choice_rf_1_2_2_1_F_11| true)
(= |memory_model::choice_rf_2_0_0_10_F_12| false)
(= |memory_model::choice_rf_2_0_0_14_F_13| true)
(= |memory_model::choice_rf_0_19_0_9_F_14| false)
(= |memory_model::choice_rf_0_19_0_15_F_15| true)
(= |memory_model::choice_rf_1_1_0_9_F_16| false)
(= |memory_model::choice_rf_1_1_0_15_F_17| true)
(= |memory_model::choice_rf_1_3_0_9_F_18| false)
(= |memory_model::choice_rf_1_3_0_15_F_19| true)
(= |memory_model::choice_ws-ext_0_8_1_5_T_20| true)
(= |memory_model::choice_ws-ext_0_8_2_3_T_21| true)
(= |memory_model::choice_ws-ext_1_5_2_3_T_22| false)
(= |memory_model::choice_ws-ext_0_10_2_1_F_23| true)
(= |memory_model::choice_ws-ext_0_14_2_1_F_24| true)
(= |argc'#0| #b00010000000000000000000000000000)
(= |nondet_symex::nondet0| #b00000000000000000000000000000001)
(= |n#3| #b00000000000000000000000000000001)
(= |__CPROVER_next_thread_id#3| #b00000000000000000000000000000001)
(= |__CPROVER_next_thread_id#5| #b00000000000000000000000000000010)
(= |x#4| #b00000000000000000000000000000001)
(= |n#5| #b00000000000000000000000000000001)
(= |pthread_create::1::this_thread_id!2@0#0| #b00000000000000000000000000000000)
(= |x#5| #b00000000000000000000000000000000)
(= |symex::io::0| #b00010000000000000000000000000000)
(= |__CPROVER_threads_exited#1$wclk$8| #b011000)
(= |__CPROVER_threads_exited#2$rclk$8| #b111110)
(= |__CPROVER_threads_exited#5$wclk$8| #b111101)
(= |__CPROVER_threads_exited#4$rclk$8| #b111100)
(= |__CPROVER_threads_exited#3$wclk$8| #b111111)
(= |x#3| #b00000000000000000000000000000000)
(= |x#1$wclk$8| #b011011)
(= |x#3$rclk$8| #b110011)
(= |x#2$wclk$8| #b011111)
(= |x#6$wclk$8| #b111011)
(= |x#4$rclk$8| #b111100)
(= |x#5$rclk$8| #b111010)
(= |n#4| #b00000000000000000000000000000001)
(= |n#1$wclk$8| #b011010)
(= |n#4$rclk$8| #b110100)
(= |n#2$wclk$8| #b101100)
(= |n#5$rclk$8| #b111101)
(= t1$18$spwnclk$8 #b110010)
(= t1$23$spwnclk$8 #b111001)
(= |__CPROVER_dead_object#1$wclk$8| #b000000)
(= |__CPROVER_deallocated#1$wclk$8| #b010000)
(= |__CPROVER_malloc_is_new_array#1$wclk$8| #b010001)
(= |__CPROVER_malloc_object#1$wclk$8| #b010010)
(= |__CPROVER_malloc_size#1$wclk$8| #b010011)
(= |__CPROVER_memory_leak#1$wclk$8| #b010101)
(= |__CPROVER_next_thread_id#1$wclk$8| #b010110)
(= |__CPROVER_pipe_count#1$wclk$8| #b010111)
(= |argv'#1$wclk$8| #b011100)
(= |main::1::t1!0@1#1$wclk$8| #b011101)
(= |main::1::t2!0@1#1$wclk$8| #b011110)
(= |__CPROVER_next_thread_id#2$wclk$8| #b110000)
(= |main::1::t1!0@1#2$wclk$8| #b110001)
(= |n#3$rclk$8| #b110011)
(= |__CPROVER_next_thread_id#3$rclk$8| #b110111)
(= |__CPROVER_next_thread_id#7$wclk$8| #b110111)
(= |main::1::t2!0@1#2$wclk$8| #b111000)
(= array_of.0 @fun_4)
(= |__CPROVER_threads_exited#2| @fun_5)
(= |__CPROVER_threads_exited#4| @fun_4)
(function @fun_4
 (type (Array (_ BitVec 32) (_ BitVec 1)))
 (default #b0))
(function @fun_5
 (type (Array (_ BitVec 32) (_ BitVec 1)))
 (default #b1))

real	0m0.004s
user	0m0.003s
sys	0m0.001s
State: AC Run_time: 0.00555729866027832